
ASes= { 1, 2, 3, 4, 5 } ;


Objects= { 1, 2, 3, 4, 5, 6, 7, 8, 9, 10, 11, 12, 13, 14, 15, 16, 17, 18, 19, 20, 21, 22, 23, 24, 25, 26, 27, 28, 29, 30, 31, 32, 33, 34, 35, 36, 37, 38, 39, 40, 41, 42, 43, 44, 45, 46, 47, 48, 49, 50, 51, 52, 53, 54, 55, 56, 57, 58, 59, 60, 61, 62, 63, 64, 65, 66, 67, 68, 69, 70, 71, 72, 73, 74, 75, 76, 77, 78, 79, 80, 81, 82, 83, 84, 85, 86, 87, 88, 89, 90, 91, 92, 93, 94, 95, 96, 97, 98, 99, 100, 101, 102, 103, 104, 105, 106, 107, 108, 109, 110, 111, 112, 113, 114, 115, 116, 117, 118, 119, 120, 121, 122, 123, 124, 125, 126, 127, 128, 129, 130, 131, 132, 133, 134, 135, 136, 137, 138, 139, 140, 141, 142, 143, 144, 145, 146, 147, 148, 149, 150, 151, 152, 153, 154, 155, 156, 157, 158, 159, 160, 161, 162, 163, 164, 165, 166, 167, 168, 169, 170, 171, 172, 173, 174, 175, 176, 177, 178, 179, 180, 181, 182, 183, 184, 185, 186, 187, 188, 189, 190, 191, 192, 193, 194, 195, 196, 197, 198, 199, 200, 201, 202, 203, 204, 205, 206, 207, 208, 209, 210, 211, 212, 213, 214, 215, 216, 217, 218, 219, 220, 221, 222, 223, 224, 225, 226, 227, 228, 229, 230, 231, 232, 233, 234, 235, 236, 237, 238, 239, 240, 241, 242, 243, 244, 245, 246, 247, 248, 249, 250, 251, 252, 253, 254, 255, 256, 257, 258, 259, 260, 261, 262, 263, 264, 265, 266, 267, 268, 269, 270, 271, 272, 273, 274, 275, 276, 277, 278, 279, 280, 281, 282, 283, 284, 285, 286, 287, 288, 289, 290, 291, 292, 293, 294, 295, 296, 297, 298, 299, 300, 301, 302, 303, 304, 305, 306, 307, 308, 309, 310, 311, 312, 313, 314, 315, 316, 317, 318, 319, 320, 321, 322, 323, 324, 325, 326, 327, 328, 329, 330, 331, 332, 333, 334, 335, 336, 337, 338, 339, 340, 341, 342, 343, 344, 345, 346, 347, 348, 349, 350, 351, 352, 353, 354, 355, 356, 357, 358, 359, 360, 361, 362, 363, 364, 365, 366, 367, 368, 369, 370, 371, 372, 373, 374, 375, 376, 377, 378, 379, 380, 381, 382, 383, 384, 385, 386, 387, 388, 389, 390, 391, 392, 393, 394, 395, 396, 397, 398, 399, 400, 401, 402, 403, 404, 405, 406, 407, 408, 409, 410, 411, 412, 413, 414, 415, 416, 417, 418, 419, 420, 421, 422, 423, 424, 425, 426, 427, 428, 429, 430, 431, 432, 433, 434, 435, 436, 437, 438, 439, 440, 441, 442, 443, 444, 445, 446, 447, 448, 449, 450, 451, 452, 453, 454, 455, 456, 457, 458, 459, 460, 461, 462, 463, 464, 465, 466, 467, 468, 469, 470, 471, 472, 473, 474, 475, 476, 477, 478, 479, 480, 481, 482, 483, 484, 485, 486, 487, 488, 489, 490, 491, 492, 493, 494, 495, 496, 497, 498, 499, 500 } ;


QualityLevels= { 0, 1, 2, 3, 4, 5 } ;

Arcs = { <1,2,490000>, <2,1,490000>,<1,3,490000>, <3,1,490000>,<1,4,490000>, <4,1,490000>,<2,5,490000>, <5,2,490000> }; 


RatePerQuality= [ 0  300  700  1500  2500  3500 ] ;


CacheSpacePerQuality= [ 10000  11.25  26.25  56.25  93.75  131.25 ] ;


UtilityPerQuality= [ 0  0.2  0.4  0.6  0.8  1 ] ;


ObjectsPublishedByProducers=[ [ 0  0  1  0  0 ]  [ 1  0  0  0  0 ]  [ 0  1  0  0  0 ]  [ 0  0  0  1  0 ]  [ 0  0  0  0  1 ]  [ 0  0  0  0  1 ]  [ 0  1  0  0  0 ]  [ 0  1  0  0  0 ]  [ 0  0  1  0  0 ]  [ 0  0  1  0  0 ]  [ 1  0  0  0  0 ]  [ 0  0  0  0  1 ]  [ 0  1  0  0  0 ]  [ 0  0  1  0  0 ]  [ 0  0  0  0  1 ]  [ 0  1  0  0  0 ]  [ 0  0  0  1  0 ]  [ 1  0  0  0  0 ]  [ 1  0  0  0  0 ]  [ 0  0  1  0  0 ]  [ 0  0  1  0  0 ]  [ 0  0  0  0  1 ]  [ 1  0  0  0  0 ]  [ 0  0  0  1  0 ]  [ 0  0  0  1  0 ]  [ 0  0  0  0  1 ]  [ 0  0  1  0  0 ]  [ 0  0  0  1  0 ]  [ 0  0  0  0  1 ]  [ 0  0  0  0  1 ]  [ 0  0  0  1  0 ]  [ 0  0  0  1  0 ]  [ 0  0  0  1  0 ]  [ 0  0  0  0  1 ]  [ 0  0  0  1  0 ]  [ 0  0  1  0  0 ]  [ 1  0  0  0  0 ]  [ 0  0  0  0  1 ]  [ 0  1  0  0  0 ]  [ 0  0  1  0  0 ]  [ 1  0  0  0  0 ]  [ 1  0  0  0  0 ]  [ 0  0  1  0  0 ]  [ 0  0  0  1  0 ]  [ 0  1  0  0  0 ]  [ 0  1  0  0  0 ]  [ 1  0  0  0  0 ]  [ 0  0  0  0  1 ]  [ 1  0  0  0  0 ]  [ 0  1  0  0  0 ]  [ 0  0  0  1  0 ]  [ 0  0  0  0  1 ]  [ 1  0  0  0  0 ]  [ 1  0  0  0  0 ]  [ 0  0  0  0  1 ]  [ 0  0  0  0  1 ]  [ 0  0  1  0  0 ]  [ 0  0  0  1  0 ]  [ 0  1  0  0  0 ]  [ 0  0  0  0  1 ]  [ 0  0  1  0  0 ]  [ 0  0  0  0  1 ]  [ 0  1  0  0  0 ]  [ 0  1  0  0  0 ]  [ 0  0  0  1  0 ]  [ 0  0  0  0  1 ]  [ 0  0  0  0  1 ]  [ 0  1  0  0  0 ]  [ 0  0  0  0  1 ]  [ 0  0  0  1  0 ]  [ 0  0  0  0  1 ]  [ 0  0  1  0  0 ]  [ 0  0  1  0  0 ]  [ 0  1  0  0  0 ]  [ 1  0  0  0  0 ]  [ 0  0  0  0  1 ]  [ 0  0  0  1  0 ]  [ 0  0  1  0  0 ]  [ 0  0  0  0  1 ]  [ 1  0  0  0  0 ]  [ 0  1  0  0  0 ]  [ 0  0  0  0  1 ]  [ 1  0  0  0  0 ]  [ 0  0  0  1  0 ]  [ 0  0  0  0  1 ]  [ 1  0  0  0  0 ]  [ 0  0  0  0  1 ]  [ 0  0  0  0  1 ]  [ 0  0  0  1  0 ]  [ 0  0  0  0  1 ]  [ 1  0  0  0  0 ]  [ 0  0  1  0  0 ]  [ 0  1  0  0  0 ]  [ 1  0  0  0  0 ]  [ 1  0  0  0  0 ]  [ 0  1  0  0  0 ]  [ 1  0  0  0  0 ]  [ 0  0  0  0  1 ]  [ 0  0  0  0  1 ]  [ 0  0  0  0  1 ]  [ 0  0  1  0  0 ]  [ 1  0  0  0  0 ]  [ 0  0  0  0  1 ]  [ 0  0  1  0  0 ]  [ 0  0  0  0  1 ]  [ 0  0  0  0  1 ]  [ 0  0  0  1  0 ]  [ 0  0  0  1  0 ]  [ 0  0  0  0  1 ]  [ 0  1  0  0  0 ]  [ 0  1  0  0  0 ]  [ 0  0  0  0  1 ]  [ 0  0  1  0  0 ]  [ 0  0  0  1  0 ]  [ 0  0  1  0  0 ]  [ 0  0  0  0  1 ]  [ 1  0  0  0  0 ]  [ 0  1  0  0  0 ]  [ 0  1  0  0  0 ]  [ 1  0  0  0  0 ]  [ 0  0  0  1  0 ]  [ 1  0  0  0  0 ]  [ 0  1  0  0  0 ]  [ 0  0  1  0  0 ]  [ 0  0  1  0  0 ]  [ 0  0  1  0  0 ]  [ 0  1  0  0  0 ]  [ 0  0  0  1  0 ]  [ 0  0  1  0  0 ]  [ 0  1  0  0  0 ]  [ 0  0  0  1  0 ]  [ 0  0  1  0  0 ]  [ 0  0  1  0  0 ]  [ 0  0  0  0  1 ]  [ 0  0  1  0  0 ]  [ 0  0  0  1  0 ]  [ 0  1  0  0  0 ]  [ 0  0  0  0  1 ]  [ 0  0  0  1  0 ]  [ 0  0  0  0  1 ]  [ 0  0  1  0  0 ]  [ 0  0  0  1  0 ]  [ 0  0  0  0  1 ]  [ 0  0  1  0  0 ]  [ 0  0  1  0  0 ]  [ 1  0  0  0  0 ]  [ 0  0  0  0  1 ]  [ 0  0  0  1  0 ]  [ 0  1  0  0  0 ]  [ 1  0  0  0  0 ]  [ 0  0  1  0  0 ]  [ 0  0  1  0  0 ]  [ 0  0  1  0  0 ]  [ 0  1  0  0  0 ]  [ 0  0  1  0  0 ]  [ 0  1  0  0  0 ]  [ 0  1  0  0  0 ]  [ 0  0  0  0  1 ]  [ 0  0  0  1  0 ]  [ 1  0  0  0  0 ]  [ 0  1  0  0  0 ]  [ 0  0  0  0  1 ]  [ 0  0  0  1  0 ]  [ 0  1  0  0  0 ]  [ 0  0  0  1  0 ]  [ 0  0  0  0  1 ]  [ 0  0  0  1  0 ]  [ 0  1  0  0  0 ]  [ 0  0  1  0  0 ]  [ 0  0  0  1  0 ]  [ 1  0  0  0  0 ]  [ 1  0  0  0  0 ]  [ 0  0  0  1  0 ]  [ 1  0  0  0  0 ]  [ 0  0  0  1  0 ]  [ 1  0  0  0  0 ]  [ 0  1  0  0  0 ]  [ 0  0  0  0  1 ]  [ 0  0  0  1  0 ]  [ 0  0  1  0  0 ]  [ 1  0  0  0  0 ]  [ 0  0  1  0  0 ]  [ 1  0  0  0  0 ]  [ 1  0  0  0  0 ]  [ 0  0  0  0  1 ]  [ 0  0  1  0  0 ]  [ 1  0  0  0  0 ]  [ 1  0  0  0  0 ]  [ 0  1  0  0  0 ]  [ 0  0  0  0  1 ]  [ 0  0  0  1  0 ]  [ 0  0  0  1  0 ]  [ 0  0  0  1  0 ]  [ 0  1  0  0  0 ]  [ 0  0  0  0  1 ]  [ 0  0  1  0  0 ]  [ 0  0  1  0  0 ]  [ 0  1  0  0  0 ]  [ 0  0  0  1  0 ]  [ 0  0  0  0  1 ]  [ 0  0  0  1  0 ]  [ 1  0  0  0  0 ]  [ 1  0  0  0  0 ]  [ 0  0  1  0  0 ]  [ 0  0  0  1  0 ]  [ 0  0  0  1  0 ]  [ 1  0  0  0  0 ]  [ 0  1  0  0  0 ]  [ 0  0  0  1  0 ]  [ 0  0  0  1  0 ]  [ 0  1  0  0  0 ]  [ 1  0  0  0  0 ]  [ 1  0  0  0  0 ]  [ 0  0  0  1  0 ]  [ 1  0  0  0  0 ]  [ 0  1  0  0  0 ]  [ 0  0  0  0  1 ]  [ 1  0  0  0  0 ]  [ 0  0  0  1  0 ]  [ 0  1  0  0  0 ]  [ 0  0  1  0  0 ]  [ 0  0  1  0  0 ]  [ 1  0  0  0  0 ]  [ 0  0  0  1  0 ]  [ 0  1  0  0  0 ]  [ 0  1  0  0  0 ]  [ 1  0  0  0  0 ]  [ 0  0  0  1  0 ]  [ 0  0  0  1  0 ]  [ 0  0  0  1  0 ]  [ 1  0  0  0  0 ]  [ 0  1  0  0  0 ]  [ 1  0  0  0  0 ]  [ 1  0  0  0  0 ]  [ 0  0  1  0  0 ]  [ 0  0  0  0  1 ]  [ 0  0  1  0  0 ]  [ 0  0  1  0  0 ]  [ 0  0  1  0  0 ]  [ 1  0  0  0  0 ]  [ 0  1  0  0  0 ]  [ 1  0  0  0  0 ]  [ 0  0  0  1  0 ]  [ 0  1  0  0  0 ]  [ 0  1  0  0  0 ]  [ 0  0  0  1  0 ]  [ 0  0  0  0  1 ]  [ 0  0  0  1  0 ]  [ 0  0  1  0  0 ]  [ 0  0  0  1  0 ]  [ 1  0  0  0  0 ]  [ 0  0  0  0  1 ]  [ 1  0  0  0  0 ]  [ 0  0  0  0  1 ]  [ 0  0  0  1  0 ]  [ 0  1  0  0  0 ]  [ 1  0  0  0  0 ]  [ 0  0  1  0  0 ]  [ 0  1  0  0  0 ]  [ 0  0  1  0  0 ]  [ 0  0  1  0  0 ]  [ 1  0  0  0  0 ]  [ 0  0  1  0  0 ]  [ 0  0  0  1  0 ]  [ 1  0  0  0  0 ]  [ 0  0  0  0  1 ]  [ 0  0  1  0  0 ]  [ 0  0  1  0  0 ]  [ 0  0  0  1  0 ]  [ 0  1  0  0  0 ]  [ 0  0  1  0  0 ]  [ 1  0  0  0  0 ]  [ 0  0  0  1  0 ]  [ 1  0  0  0  0 ]  [ 1  0  0  0  0 ]  [ 0  0  0  1  0 ]  [ 0  0  0  1  0 ]  [ 0  0  0  0  1 ]  [ 0  0  1  0  0 ]  [ 0  1  0  0  0 ]  [ 0  0  1  0  0 ]  [ 0  0  1  0  0 ]  [ 1  0  0  0  0 ]  [ 0  0  0  1  0 ]  [ 0  0  0  0  1 ]  [ 0  0  0  0  1 ]  [ 0  0  0  1  0 ]  [ 0  0  1  0  0 ]  [ 1  0  0  0  0 ]  [ 1  0  0  0  0 ]  [ 1  0  0  0  0 ]  [ 0  0  1  0  0 ]  [ 0  0  0  1  0 ]  [ 0  1  0  0  0 ]  [ 1  0  0  0  0 ]  [ 0  0  0  0  1 ]  [ 0  1  0  0  0 ]  [ 0  1  0  0  0 ]  [ 0  0  0  1  0 ]  [ 0  0  0  0  1 ]  [ 0  0  0  1  0 ]  [ 0  0  0  1  0 ]  [ 0  0  1  0  0 ]  [ 0  0  0  1  0 ]  [ 1  0  0  0  0 ]  [ 0  0  0  0  1 ]  [ 0  1  0  0  0 ]  [ 0  1  0  0  0 ]  [ 1  0  0  0  0 ]  [ 0  0  0  1  0 ]  [ 0  0  0  1  0 ]  [ 0  0  0  1  0 ]  [ 0  0  0  1  0 ]  [ 1  0  0  0  0 ]  [ 1  0  0  0  0 ]  [ 0  0  0  1  0 ]  [ 0  0  0  1  0 ]  [ 0  0  0  0  1 ]  [ 0  0  0  0  1 ]  [ 0  0  0  0  1 ]  [ 0  0  0  1  0 ]  [ 0  0  1  0  0 ]  [ 0  0  0  1  0 ]  [ 0  0  1  0  0 ]  [ 0  0  0  0  1 ]  [ 0  0  1  0  0 ]  [ 0  0  1  0  0 ]  [ 0  1  0  0  0 ]  [ 0  0  0  1  0 ]  [ 0  1  0  0  0 ]  [ 0  0  0  0  1 ]  [ 1  0  0  0  0 ]  [ 0  0  1  0  0 ]  [ 0  0  0  0  1 ]  [ 0  1  0  0  0 ]  [ 0  0  1  0  0 ]  [ 1  0  0  0  0 ]  [ 0  0  1  0  0 ]  [ 0  1  0  0  0 ]  [ 1  0  0  0  0 ]  [ 1  0  0  0  0 ]  [ 0  0  0  1  0 ]  [ 0  0  1  0  0 ]  [ 0  0  0  0  1 ]  [ 1  0  0  0  0 ]  [ 0  0  0  1  0 ]  [ 1  0  0  0  0 ]  [ 0  0  1  0  0 ]  [ 1  0  0  0  0 ]  [ 0  0  1  0  0 ]  [ 0  0  0  1  0 ]  [ 1  0  0  0  0 ]  [ 1  0  0  0  0 ]  [ 1  0  0  0  0 ]  [ 1  0  0  0  0 ]  [ 0  1  0  0  0 ]  [ 0  1  0  0  0 ]  [ 0  0  1  0  0 ]  [ 0  0  0  0  1 ]  [ 0  0  1  0  0 ]  [ 0  1  0  0  0 ]  [ 0  1  0  0  0 ]  [ 0  0  0  1  0 ]  [ 0  0  1  0  0 ]  [ 1  0  0  0  0 ]  [ 1  0  0  0  0 ]  [ 0  0  0  0  1 ]  [ 0  0  0  0  1 ]  [ 1  0  0  0  0 ]  [ 0  0  0  0  1 ]  [ 0  0  0  1  0 ]  [ 0  0  0  1  0 ]  [ 0  0  0  1  0 ]  [ 0  0  1  0  0 ]  [ 0  1  0  0  0 ]  [ 0  0  0  0  1 ]  [ 0  0  0  0  1 ]  [ 0  0  1  0  0 ]  [ 0  0  0  1  0 ]  [ 0  0  1  0  0 ]  [ 0  0  1  0  0 ]  [ 0  0  0  1  0 ]  [ 1  0  0  0  0 ]  [ 0  0  0  1  0 ]  [ 0  0  0  0  1 ]  [ 0  1  0  0  0 ]  [ 0  0  0  1  0 ]  [ 0  0  1  0  0 ]  [ 0  0  0  0  1 ]  [ 0  0  0  0  1 ]  [ 0  1  0  0  0 ]  [ 0  0  0  0  1 ]  [ 0  1  0  0  0 ]  [ 0  1  0  0  0 ]  [ 0  0  0  1  0 ]  [ 0  0  0  0  1 ]  [ 0  0  0  0  1 ]  [ 0  0  0  1  0 ]  [ 0  0  0  0  1 ]  [ 0  0  0  0  1 ]  [ 1  0  0  0  0 ]  [ 1  0  0  0  0 ]  [ 0  0  0  1  0 ]  [ 0  1  0  0  0 ]  [ 0  0  1  0  0 ]  [ 0  0  1  0  0 ]  [ 0  0  0  0  1 ]  [ 1  0  0  0  0 ]  [ 0  0  1  0  0 ]  [ 0  1  0  0  0 ]  [ 1  0  0  0  0 ]  [ 0  0  0  1  0 ]  [ 0  1  0  0  0 ]  [ 1  0  0  0  0 ]  [ 0  0  0  1  0 ]  [ 0  1  0  0  0 ]  [ 0  1  0  0  0 ]  [ 0  0  0  0  1 ]  [ 1  0  0  0  0 ]  [ 1  0  0  0  0 ]  [ 1  0  0  0  0 ]  [ 0  0  0  0  1 ]  [ 0  0  1  0  0 ]  [ 0  0  0  1  0 ]  [ 0  0  0  1  0 ]  [ 0  0  0  0  1 ]  [ 0  1  0  0  0 ]  [ 0  0  1  0  0 ]  [ 0  1  0  0  0 ]  [ 0  1  0  0  0 ]  [ 0  0  0  1  0 ]  [ 0  0  0  0  1 ]  [ 0  0  1  0  0 ]  [ 0  1  0  0  0 ]  [ 0  0  1  0  0 ]  [ 1  0  0  0  0 ]  [ 1  0  0  0  0 ]  [ 0  1  0  0  0 ]  [ 0  0  0  1  0 ]  [ 1  0  0  0  0 ]  [ 1  0  0  0  0 ]  [ 0  0  1  0  0 ]  [ 0  1  0  0  0 ]  [ 1  0  0  0  0 ]  [ 0  1  0  0  0 ]  [ 0  1  0  0  0 ]  [ 0  0  0  0  1 ]  [ 1  0  0  0  0 ]  [ 1  0  0  0  0 ]  [ 0  0  0  1  0 ]  [ 1  0  0  0  0 ]  [ 0  0  0  0  1 ]  [ 0  0  1  0  0 ]  [ 0  0  0  1  0 ]  [ 0  0  1  0  0 ]  [ 1  0  0  0  0 ]  [ 1  0  0  0  0 ]  [ 0  0  1  0  0 ]  [ 0  1  0  0  0 ]  [ 0  0  0  0  1 ]  [ 0  0  1  0  0 ]  [ 0  0  0  1  0 ]  [ 0  0  0  1  0 ]  [ 0  1  0  0  0 ]  [ 0  0  1  0  0 ]  [ 0  0  1  0  0 ]  [ 0  0  0  0  1 ]  [ 0  0  1  0  0 ]  [ 0  1  0  0  0 ]  [ 0  1  0  0  0 ]  [ 1  0  0  0  0 ]  [ 0  0  0  1  0 ]  [ 0  0  0  1  0 ]  [ 0  0  0  0  1 ]  [ 0  0  0  1  0 ]  [ 0  0  0  0  1 ]  [ 0  0  0  1  0 ]  [ 0  1  0  0  0 ]  [ 0  1  0  0  0 ]  [ 1  0  0  0  0 ]  [ 1  0  0  0  0 ]  [ 0  0  0  0  1 ]  [ 0  0  0  0  1 ]  [ 1  0  0  0  0 ]  [ 0  1  0  0  0 ]  [ 0  0  0  0  1 ]  [ 0  0  0  1  0 ]  [ 0  0  0  1  0 ]  [ 0  0  1  0  0 ]  [ 1  0  0  0  0 ]  [ 0  0  1  0  0 ]  [ 0  1  0  0  0 ]  [ 0  0  0  0  1 ]  [ 1  0  0  0  0 ]  [ 0  1  0  0  0 ]  [ 1  0  0  0  0 ]  [ 0  0  1  0  0 ]  [ 0  0  0  0  1 ]  [ 0  0  0  0  1 ]  [ 0  0  0  1  0 ] ];

ObjRequests = {  <1,3,203>, <2,3,82>, <3,3,24>, <4,3,17>, <5,3,26>, <6,3,10>, <7,3,6>, <8,3,57>, <9,3,11>, <10,3,27>, <11,3,30>, <12,3,8>, <13,3,5>, <14,3,23>, <15,3,44>, <16,3,12>, <17,3,10>, <18,3,7>, <19,3,6>, <20,3,8>, <21,3,18>, <22,3,5>, <23,3,2>, <24,3,2>, <25,3,12>, <26,3,6>, <27,3,3>, <28,3,16>, <29,3,5>, <30,3,6>, <31,3,9>, <32,3,20>, <33,3,5>, <34,3,1>, <35,3,9>, <36,3,6>, <37,3,3>, <38,3,3>, <39,3,11>, <42,3,1>, <43,3,5>, <44,3,14>, <45,3,7>, <47,3,4>, <48,3,2>, <49,3,11>, <50,3,1>, <52,3,1>, <54,3,7>, <56,3,5>, <57,3,5>, <58,3,1>, <59,3,9>, <60,3,8>, <61,3,3>, <63,3,3>, <64,3,3>, <65,3,1>, <66,3,1>, <67,3,2>, <68,3,5>, <69,3,7>, <70,3,1>, <71,3,1>, <75,3,2>, <76,3,1>, <77,3,5>, <78,3,6>, <79,3,1>, <80,3,2>, <81,3,1>, <84,3,1>, <85,3,1>, <86,3,1>, <87,3,4>, <88,3,9>, <89,3,1>, <90,3,2>, <91,3,4>, <92,3,2>, <93,3,7>, <94,3,2>, <95,3,2>, <96,3,2>, <97,3,6>, <98,3,5>, <99,3,1>, <100,3,1>, <102,3,2>, <103,3,4>, <105,3,2>, <106,3,1>, <107,3,1>, <108,3,1>, <110,3,3>, <111,3,2>, <113,3,2>, <114,3,6>, <115,3,4>, <116,3,2>, <117,3,2>, <118,3,2>, <119,3,1>, <120,3,1>, <121,3,1>, <122,3,2>, <123,3,3>, <124,3,1>, <125,3,2>, <126,3,2>, <128,3,1>, <130,3,1>, <131,3,2>, <132,3,2>, <133,3,1>, <136,3,2>, <137,3,1>, <138,3,1>, <140,3,2>, <141,3,1>, <144,3,2>, <146,3,1>, <147,3,1>, <149,3,2>, <150,3,2>, <151,3,2>, <153,3,1>, <154,3,1>, <155,3,1>, <159,3,2>, <160,3,4>, <161,3,1>, <163,3,1>, <164,3,1>, <166,3,1>, <167,3,2>, <168,3,2>, <169,3,1>, <170,3,1>, <171,3,1>, <172,3,2>, <174,3,2>, <176,3,1>, <178,3,1>, <179,3,1>, <180,3,3>, <182,3,1>, <183,3,1>, <184,3,1>, <185,3,1>, <186,3,2>, <187,3,1>, <188,3,1>, <191,3,2>, <193,3,1>, <195,3,1>, <196,3,1>, <197,3,1>, <199,3,1>, <200,3,1>, <201,3,1>, <202,3,1>, <207,3,2>, <208,3,1>, <209,3,1>, <211,3,2>, <212,3,4>, <213,3,1>, <214,3,1>, <215,3,1>, <217,3,2>, <218,3,1>, <219,3,1>, <222,3,2>, <223,3,2>, <225,3,1>, <227,3,2>, <228,3,2>, <230,3,1>, <232,3,1>, <234,3,1>, <235,3,2>, <237,3,1>, <239,3,4>, <240,3,1>, <241,3,1>, <242,3,1>, <246,3,1>, <248,3,1>, <249,3,1>, <250,3,1>, <253,3,2>, <256,3,1>, <257,3,1>, <258,3,1>, <260,3,1>, <263,3,1>, <267,3,1>, <268,3,1>, <271,3,3>, <272,3,1>, <275,3,1>, <277,3,2>, <278,3,1>, <279,3,1>, <280,3,1>, <283,3,1>, <284,3,1>, <292,3,2>, <295,3,1>, <299,3,1>, <302,3,3>, <308,3,1>, <310,3,1>, <319,3,1>, <322,3,1>, <323,3,1>, <324,3,1>, <327,3,1>, <330,3,1>, <331,3,1>, <335,3,1>, <337,3,1>, <338,3,2>, <339,3,1>, <346,3,1>, <347,3,1>, <348,3,1>, <349,3,1>, <352,3,1>, <365,3,1>, <366,3,1>, <367,3,1>, <368,3,1>, <369,3,2>, <370,3,2>, <371,3,1>, <380,3,1>, <382,3,1>, <383,3,1>, <389,3,2>, <391,3,1>, <392,3,1>, <394,3,1>, <396,3,2>, <403,3,2>, <404,3,2>, <414,3,1>, <416,3,1>, <417,3,1>, <419,3,1>, <428,3,1>, <429,3,1>, <431,3,1>, <436,3,1>, <438,3,1>, <441,3,1>, <443,3,1>, <445,3,1>, <448,3,1>, <452,3,1>, <455,3,1>, <458,3,1>, <462,3,2>, <471,3,1>, <472,3,1>, <474,3,1>, <480,3,1>, <486,3,1>, <493,3,1>, <497,3,1>, <1,4,116>, <2,4,39>, <3,4,40>, <4,4,41>, <5,4,18>, <6,4,2>, <7,4,63>, <8,4,8>, <9,4,39>, <10,4,42>, <11,4,1>, <12,4,28>, <13,4,18>, <14,4,13>, <15,4,1>, <16,4,15>, <17,4,5>, <18,4,21>, <19,4,11>, <20,4,7>, <21,4,2>, <23,4,11>, <24,4,22>, <25,4,12>, <26,4,25>, <27,4,4>, <28,4,9>, <29,4,3>, <30,4,2>, <31,4,1>, <32,4,4>, <33,4,2>, <34,4,4>, <35,4,2>, <36,4,6>, <37,4,7>, <38,4,3>, <39,4,4>, <40,4,2>, <41,4,7>, <44,4,1>, <45,4,5>, <47,4,1>, <48,4,10>, <49,4,3>, <50,4,1>, <51,4,3>, <52,4,2>, <53,4,1>, <54,4,3>, <56,4,1>, <57,4,5>, <58,4,1>, <60,4,2>, <61,4,2>, <63,4,5>, <64,4,1>, <65,4,3>, <66,4,3>, <67,4,2>, <68,4,1>, <70,4,2>, <71,4,2>, <72,4,2>, <73,4,8>, <76,4,9>, <78,4,1>, <80,4,1>, <81,4,6>, <82,4,4>, <84,4,1>, <85,4,2>, <86,4,1>, <89,4,5>, <90,4,1>, <91,4,5>, <92,4,2>, <93,4,1>, <94,4,3>, <95,4,2>, <102,4,1>, <103,4,4>, <104,4,1>, <105,4,3>, <109,4,3>, <110,4,2>, <111,4,1>, <113,4,4>, <115,4,2>, <117,4,4>, <118,4,1>, <119,4,1>, <121,4,1>, <122,4,1>, <123,4,1>, <126,4,1>, <127,4,6>, <128,4,2>, <129,4,3>, <131,4,1>, <132,4,1>, <133,4,1>, <134,4,2>, <136,4,1>, <137,4,1>, <138,4,1>, <139,4,1>, <142,4,6>, <143,4,1>, <144,4,4>, <145,4,1>, <146,4,2>, <147,4,4>, <148,4,2>, <149,4,3>, <150,4,1>, <151,4,1>, <155,4,3>, <156,4,2>, <157,4,1>, <158,4,1>, <159,4,1>, <160,4,1>, <162,4,1>, <163,4,3>, <164,4,3>, <166,4,2>, <167,4,1>, <169,4,2>, <170,4,1>, <171,4,1>, <172,4,2>, <173,4,1>, <174,4,2>, <177,4,2>, <178,4,1>, <179,4,1>, <180,4,1>, <182,4,1>, <183,4,1>, <186,4,3>, <188,4,3>, <190,4,1>, <191,4,4>, <192,4,4>, <193,4,1>, <194,4,1>, <197,4,1>, <198,4,1>, <201,4,1>, <203,4,1>, <206,4,1>, <207,4,1>, <209,4,3>, <211,4,1>, <212,4,1>, <213,4,2>, <215,4,1>, <217,4,2>, <220,4,1>, <224,4,1>, <227,4,1>, <228,4,1>, <229,4,2>, <234,4,1>, <235,4,2>, <237,4,1>, <238,4,1>, <240,4,1>, <241,4,1>, <242,4,1>, <246,4,1>, <249,4,1>, <250,4,1>, <251,4,2>, <252,4,1>, <257,4,3>, <260,4,1>, <263,4,2>, <264,4,11>, <265,4,1>, <266,4,1>, <269,4,2>, <270,4,1>, <271,4,1>, <273,4,4>, <274,4,1>, <275,4,1>, <277,4,2>, <278,4,1>, <279,4,1>, <281,4,2>, <285,4,1>, <286,4,1>, <288,4,1>, <290,4,2>, <295,4,1>, <297,4,1>, <298,4,1>, <301,4,1>, <302,4,6>, <310,4,1>, <311,4,1>, <312,4,1>, <313,4,1>, <314,4,1>, <315,4,2>, <317,4,1>, <322,4,1>, <324,4,1>, <325,4,2>, <327,4,3>, <334,4,1>, <335,4,1>, <337,4,1>, <338,4,1>, <339,4,1>, <341,4,1>, <349,4,1>, <352,4,1>, <353,4,1>, <355,4,1>, <362,4,1>, <363,4,1>, <364,4,1>, <367,4,2>, <373,4,1>, <380,4,2>, <381,4,1>, <384,4,1>, <386,4,1>, <389,4,1>, <392,4,1>, <394,4,1>, <401,4,1>, <403,4,1>, <407,4,1>, <408,4,4>, <410,4,1>, <412,4,3>, <417,4,1>, <420,4,1>, <430,4,1>, <431,4,1>, <434,4,2>, <436,4,1>, <446,4,2>, <448,4,1>, <452,4,2>, <453,4,1>, <458,4,1>, <460,4,1>, <462,4,1>, <467,4,1>, <468,4,1>, <469,4,1>, <472,4,1>, <475,4,1>, <476,4,2>, <482,4,1>, <486,4,1>, <493,4,1>, <1,5,146>, <2,5,205>, <3,5,29>, <4,5,111>, <5,5,22>, <6,5,17>, <7,5,2>, <8,5,15>, <9,5,21>, <10,5,9>, <11,5,47>, <13,5,44>, <14,5,4>, <15,5,5>, <16,5,13>, <17,5,9>, <18,5,18>, <19,5,19>, <20,5,20>, <21,5,12>, <22,5,12>, <24,5,6>, <25,5,4>, <26,5,7>, <27,5,23>, <28,5,1>, <29,5,4>, <30,5,7>, <31,5,9>, <32,5,9>, <33,5,14>, <34,5,5>, <35,5,8>, <36,5,18>, <37,5,3>, <38,5,6>, <39,5,3>, <40,5,14>, <41,5,8>, <42,5,3>, <43,5,9>, <44,5,4>, <45,5,2>, <46,5,7>, <47,5,1>, <48,5,4>, <49,5,1>, <50,5,3>, <51,5,12>, <52,5,3>, <53,5,2>, <54,5,1>, <55,5,4>, <56,5,5>, <57,5,10>, <58,5,5>, <59,5,2>, <60,5,8>, <61,5,7>, <62,5,3>, <63,5,4>, <64,5,4>, <65,5,2>, <66,5,1>, <67,5,11>, <68,5,1>, <69,5,1>, <70,5,3>, <72,5,4>, <73,5,1>, <74,5,8>, <79,5,3>, <80,5,3>, <81,5,1>, <82,5,1>, <83,5,1>, <88,5,2>, <90,5,2>, <92,5,5>, <93,5,1>, <94,5,5>, <95,5,1>, <97,5,3>, <98,5,1>, <99,5,1>, <100,5,5>, <101,5,5>, <103,5,3>, <104,5,5>, <105,5,1>, <106,5,2>, <107,5,3>, <108,5,2>, <110,5,1>, <111,5,2>, <112,5,1>, <113,5,1>, <115,5,4>, <116,5,1>, <118,5,1>, <120,5,1>, <122,5,1>, <124,5,3>, <125,5,1>, <126,5,1>, <128,5,2>, <129,5,1>, <130,5,1>, <132,5,2>, <133,5,2>, <135,5,1>, <136,5,2>, <137,5,1>, <139,5,2>, <140,5,4>, <141,5,1>, <142,5,3>, <143,5,3>, <144,5,3>, <145,5,1>, <147,5,1>, <148,5,3>, <149,5,2>, <150,5,1>, <154,5,1>, <155,5,1>, <156,5,1>, <159,5,1>, <160,5,3>, <161,5,2>, <162,5,1>, <164,5,2>, <166,5,2>, <167,5,5>, <169,5,1>, <170,5,3>, <172,5,2>, <177,5,2>, <178,5,1>, <179,5,1>, <180,5,1>, <181,5,1>, <182,5,1>, <184,5,2>, <185,5,1>, <186,5,1>, <187,5,1>, <190,5,3>, <191,5,1>, <193,5,1>, <194,5,3>, <195,5,2>, <196,5,1>, <197,5,1>, <200,5,1>, <202,5,5>, <204,5,2>, <210,5,1>, <212,5,1>, <213,5,2>, <214,5,1>, <215,5,2>, <217,5,1>, <218,5,1>, <219,5,1>, <222,5,1>, <224,5,2>, <226,5,3>, <227,5,1>, <230,5,1>, <231,5,3>, <232,5,1>, <233,5,2>, <234,5,1>, <236,5,1>, <239,5,1>, <240,5,1>, <242,5,1>, <243,5,1>, <248,5,1>, <249,5,1>, <250,5,1>, <251,5,2>, <252,5,2>, <255,5,1>, <256,5,1>, <257,5,1>, <258,5,2>, <259,5,1>, <263,5,2>, <267,5,1>, <269,5,1>, <270,5,2>, <271,5,1>, <272,5,4>, <273,5,1>, <274,5,1>, <276,5,1>, <278,5,2>, <279,5,1>, <280,5,1>, <282,5,1>, <285,5,1>, <286,5,1>, <292,5,1>, <293,5,1>, <294,5,2>, <295,5,2>, <296,5,1>, <299,5,1>, <300,5,1>, <301,5,1>, <302,5,1>, <305,5,2>, <307,5,1>, <313,5,1>, <319,5,1>, <321,5,1>, <322,5,2>, <325,5,1>, <326,5,1>, <327,5,1>, <328,5,1>, <334,5,1>, <337,5,1>, <338,5,4>, <341,5,1>, <344,5,1>, <345,5,1>, <349,5,1>, <351,5,1>, <355,5,1>, <359,5,1>, <365,5,1>, <368,5,1>, <370,5,1>, <377,5,1>, <380,5,1>, <381,5,1>, <383,5,1>, <387,5,1>, <388,5,2>, <389,5,1>, <391,5,1>, <392,5,1>, <394,5,1>, <399,5,1>, <400,5,1>, <401,5,1>, <407,5,1>, <408,5,1>, <412,5,1>, <414,5,1>, <417,5,2>, <418,5,2>, <424,5,1>, <427,5,1>, <430,5,1>, <434,5,1>, <438,5,1>, <441,5,1>, <444,5,1>, <446,5,1>, <453,5,1>, <458,5,2>, <464,5,1>, <468,5,1>, <469,5,1>, <472,5,1>, <473,5,1>, <476,5,1>, <479,5,1>, <480,5,2>, <486,5,2>, <493,5,1>, <496,5,2>, <1,2,224>, <2,2,118>, <3,2,197>, <4,2,5>, <5,2,41>, <6,2,60>, <7,2,56>, <8,2,1>, <9,2,15>, <10,2,1>, <11,2,7>, <12,2,7>, <13,2,6>, <14,2,4>, <16,2,7>, <17,2,14>, <19,2,10>, <20,2,11>, <21,2,3>, <22,2,13>, <23,2,38>, <24,2,5>, <25,2,4>, <27,2,6>, <28,2,2>, <29,2,13>, <30,2,5>, <31,2,10>, <33,2,1>, <34,2,6>, <35,2,4>, <36,2,2>, <37,2,25>, <38,2,7>, <39,2,1>, <40,2,4>, <41,2,3>, <42,2,13>, <43,2,5>, <44,2,4>, <45,2,6>, <46,2,3>, <47,2,6>, <48,2,1>, <49,2,2>, <50,2,9>, <51,2,1>, <52,2,3>, <53,2,12>, <54,2,7>, <55,2,3>, <56,2,6>, <57,2,1>, <58,2,3>, <59,2,2>, <60,2,2>, <61,2,2>, <62,2,2>, <63,2,4>, <64,2,1>, <65,2,10>, <66,2,8>, <67,2,2>, <68,2,5>, <70,2,2>, <71,2,2>, <72,2,7>, <73,2,1>, <74,2,5>, <75,2,2>, <76,2,3>, <77,2,1>, <78,2,1>, <79,2,2>, <80,2,2>, <81,2,1>, <82,2,3>, <83,2,1>, <84,2,3>, <86,2,1>, <88,2,2>, <89,2,2>, <90,2,2>, <91,2,1>, <94,2,1>, <97,2,1>, <98,2,1>, <99,2,4>, <100,2,3>, <102,2,1>, <105,2,1>, <106,2,4>, <107,2,1>, <108,2,2>, <109,2,5>, <111,2,1>, <112,2,3>, <113,2,1>, <114,2,3>, <115,2,1>, <116,2,7>, <118,2,5>, <119,2,1>, <120,2,1>, <122,2,1>, <124,2,4>, <125,2,8>, <126,2,7>, <127,2,1>, <128,2,3>, <129,2,3>, <130,2,3>, <131,2,1>, <132,2,5>, <134,2,1>, <135,2,1>, <136,2,2>, <137,2,1>, <138,2,1>, <139,2,1>, <140,2,2>, <141,2,1>, <143,2,1>, <144,2,2>, <146,2,2>, <147,2,1>, <148,2,3>, <149,2,2>, <150,2,1>, <151,2,3>, <152,2,1>, <154,2,1>, <155,2,1>, <156,2,1>, <161,2,1>, <162,2,7>, <164,2,1>, <165,2,1>, <166,2,1>, <167,2,1>, <168,2,1>, <169,2,2>, <170,2,4>, <171,2,4>, <173,2,3>, <174,2,2>, <177,2,1>, <178,2,2>, <180,2,2>, <183,2,2>, <185,2,2>, <186,2,1>, <188,2,4>, <189,2,3>, <190,2,1>, <191,2,2>, <193,2,4>, <195,2,1>, <198,2,1>, <199,2,2>, <200,2,2>, <201,2,4>, <202,2,1>, <203,2,1>, <204,2,1>, <206,2,1>, <207,2,1>, <210,2,1>, <211,2,2>, <212,2,1>, <213,2,1>, <214,2,1>, <215,2,1>, <216,2,1>, <218,2,3>, <220,2,2>, <221,2,1>, <224,2,1>, <225,2,1>, <226,2,3>, <230,2,1>, <231,2,3>, <233,2,1>, <235,2,1>, <236,2,1>, <238,2,1>, <240,2,2>, <241,2,2>, <243,2,2>, <245,2,1>, <246,2,1>, <250,2,2>, <251,2,1>, <253,2,2>, <254,2,1>, <257,2,1>, <259,2,2>, <261,2,1>, <262,2,1>, <263,2,1>, <264,2,3>, <265,2,2>, <266,2,1>, <268,2,1>, <269,2,1>, <271,2,2>, <272,2,1>, <274,2,2>, <277,2,1>, <278,2,1>, <279,2,1>, <282,2,1>, <283,2,1>, <290,2,2>, <292,2,1>, <294,2,2>, <295,2,2>, <297,2,1>, <298,2,2>, <304,2,1>, <306,2,1>, <307,2,1>, <315,2,1>, <317,2,4>, <325,2,1>, <328,2,1>, <331,2,1>, <335,2,1>, <339,2,1>, <341,2,1>, <342,2,1>, <345,2,1>, <346,2,1>, <347,2,1>, <349,2,1>, <355,2,1>, <360,2,1>, <361,2,1>, <364,2,1>, <368,2,1>, <369,2,1>, <370,2,1>, <372,2,1>, <375,2,1>, <382,2,1>, <384,2,1>, <387,2,1>, <390,2,1>, <391,2,1>, <392,2,1>, <394,2,1>, <397,2,1>, <402,2,1>, <406,2,1>, <408,2,2>, <410,2,4>, <412,2,3>, <414,2,1>, <416,2,1>, <417,2,1>, <423,2,2>, <425,2,2>, <426,2,2>, <427,2,1>, <428,2,1>, <430,2,2>, <443,2,1>, <447,2,1>, <448,2,2>, <452,2,3>, <455,2,1>, <459,2,1>, <460,2,1>, <461,2,1>, <472,2,1>, <473,2,2>, <476,2,1>, <481,2,1>, <486,2,2>, <488,2,1>, <489,2,1>, <1,1,265>, <2,1,53>, <3,1,20>, <4,1,51>, <5,1,76>, <6,1,80>, <8,1,56>, <9,1,14>, <10,1,25>, <11,1,21>, <12,1,27>, <13,1,1>, <14,1,18>, <16,1,7>, <17,1,20>, <18,1,18>, <19,1,1>, <20,1,2>, <21,1,6>, <22,1,24>, <23,1,3>, <24,1,1>, <25,1,7>, <26,1,3>, <27,1,2>, <28,1,8>, <29,1,4>, <30,1,12>, <31,1,3>, <32,1,2>, <33,1,3>, <34,1,21>, <35,1,4>, <38,1,1>, <39,1,5>, <40,1,6>, <41,1,2>, <42,1,2>, <43,1,6>, <44,1,4>, <45,1,2>, <46,1,5>, <47,1,1>, <50,1,13>, <51,1,4>, <52,1,10>, <53,1,10>, <54,1,1>, <55,1,7>, <57,1,1>, <58,1,4>, <59,1,1>, <60,1,1>, <61,1,6>, <64,1,1>, <65,1,3>, <66,1,4>, <67,1,1>, <68,1,4>, <69,1,7>, <70,1,5>, <71,1,3>, <72,1,1>, <73,1,4>, <75,1,1>, <76,1,1>, <77,1,6>, <78,1,3>, <79,1,2>, <80,1,1>, <81,1,3>, <82,1,1>, <83,1,1>, <84,1,1>, <85,1,3>, <86,1,13>, <87,1,3>, <88,1,1>, <89,1,3>, <90,1,4>, <91,1,2>, <92,1,1>, <93,1,1>, <94,1,1>, <95,1,3>, <96,1,1>, <97,1,2>, <99,1,2>, <100,1,1>, <101,1,6>, <102,1,2>, <103,1,2>, <106,1,3>, <109,1,1>, <110,1,2>, <111,1,2>, <112,1,3>, <117,1,2>, <118,1,2>, <119,1,2>, <120,1,1>, <122,1,1>, <123,1,2>, <124,1,1>, <125,1,1>, <126,1,1>, <127,1,3>, <128,1,1>, <131,1,2>, <132,1,1>, <133,1,1>, <134,1,1>, <135,1,5>, <136,1,4>, <137,1,1>, <140,1,2>, <141,1,2>, <142,1,2>, <144,1,1>, <146,1,1>, <147,1,1>, <148,1,2>, <149,1,1>, <150,1,2>, <152,1,1>, <153,1,2>, <155,1,4>, <156,1,2>, <157,1,2>, <158,1,4>, <159,1,1>, <160,1,3>, <161,1,3>, <163,1,3>, <166,1,2>, <169,1,1>, <170,1,1>, <172,1,1>, <173,1,2>, <174,1,2>, <175,1,2>, <176,1,1>, <178,1,1>, <179,1,1>, <181,1,2>, <182,1,2>, <185,1,2>, <186,1,3>, <187,1,1>, <188,1,1>, <189,1,1>, <191,1,2>, <192,1,1>, <194,1,1>, <195,1,3>, <196,1,1>, <201,1,3>, <202,1,2>, <204,1,1>, <207,1,3>, <209,1,3>, <214,1,1>, <215,1,1>, <216,1,1>, <217,1,1>, <220,1,1>, <225,1,2>, <226,1,1>, <227,1,1>, <229,1,1>, <230,1,1>, <233,1,1>, <235,1,1>, <238,1,1>, <239,1,1>, <241,1,2>, <244,1,1>, <246,1,3>, <248,1,1>, <251,1,1>, <253,1,1>, <254,1,1>, <256,1,1>, <266,1,3>, <269,1,1>, <270,1,1>, <272,1,1>, <274,1,1>, <275,1,1>, <278,1,3>, <279,1,1>, <280,1,1>, <283,1,1>, <286,1,1>, <287,1,1>, <288,1,2>, <293,1,1>, <294,1,2>, <296,1,3>, <297,1,1>, <298,1,1>, <300,1,1>, <302,1,1>, <305,1,1>, <306,1,1>, <307,1,1>, <308,1,1>, <311,1,1>, <317,1,1>, <319,1,1>, <321,1,2>, <325,1,1>, <326,1,3>, <327,1,1>, <330,1,1>, <331,1,2>, <335,1,1>, <338,1,1>, <341,1,1>, <343,1,1>, <344,1,1>, <348,1,1>, <349,1,2>, <351,1,1>, <353,1,1>, <355,1,1>, <358,1,1>, <360,1,1>, <362,1,3>, <365,1,2>, <366,1,1>, <370,1,1>, <373,1,1>, <374,1,1>, <380,1,1>, <381,1,1>, <382,1,4>, <385,1,1>, <386,1,1>, <387,1,1>, <388,1,1>, <394,1,1>, <395,1,1>, <397,1,1>, <400,1,2>, <403,1,1>, <406,1,1>, <407,1,1>, <410,1,1>, <411,1,4>, <412,1,1>, <417,1,2>, <425,1,1>, <430,1,1>, <431,1,1>, <437,1,1>, <441,1,1>, <443,1,1>, <447,1,1>, <452,1,1>, <455,1,1>, <458,1,1>, <461,1,1>, <467,1,2>, <468,1,1>, <471,1,1>, <472,1,2>, <473,1,2>, <478,1,2>, <481,1,1>, <482,1,2>, <486,1,2>, <493,1,1>, <496,1,1> };

MaxCacheStorageAtSingleAS= [ 656.25  656.25  656.25  656.25  656.25 ] ;

MaxCacheStorage = 3281.25 ;
SolutionGap = 0.01 ;
